db/data/1113857815900114644088268481972425017.z3.out
-------------------
2500.096219701
